; benchmark generated from python API
(set-info :status unknown)
(declare-datatypes ((IntState 0)) (((Mk1 (val1 Int)) (Mk2 (val2 Int)))))
 (declare-fun c_main_~n~22 () Int)
(declare-fun c_main_~f1~22 () Int)
(declare-fun |c_main_#t~ret12| () Int)
(assert
 (let (($x25 (exists ((v_nnf_35_st IntState) (val!45 Int) )(exists ((v_nnf_34_st IntState) (val!46 Int) )(let (($x122 (<= c_main_~n~22 2)))
 (let (($x149 (<= (+ c_main_~f1~22 (* 2 (val2 v_nnf_35_st)) (* 2 (val2 v_nnf_34_st)) 1) |c_main_#t~ret12|)))
 (let (($x101 (and $x149 (<= c_main_~f1~22 (val2 v_nnf_35_st)) (<= (val2 v_nnf_35_st) (val2 v_nnf_34_st)) $x122)))
 (let (($x52 (not (= v_nnf_34_st (Mk1 val!46)))))
 (let (($x173 (not (= v_nnf_35_st (Mk1 val!45)))))
 (and $x173 $x52 $x101)))))))
 )
 ))
 (let (($x122 (<= c_main_~n~22 2)))
 (let (($x155 (exists ((v_nnf_35 Int) )(exists ((v_nnf_34 Int) )(let (($x122 (<= c_main_~n~22 2)))
 (let (($x44 (<= (+ c_main_~f1~22 (* 2 v_nnf_35) (* 2 v_nnf_34) 1) |c_main_#t~ret12|)))
 (and $x44 (<= c_main_~f1~22 v_nnf_35) (<= v_nnf_35 v_nnf_34) $x122))))
 )
 ))
 (and (and $x155 $x122) (not $x25))))))
(check-sat)
